flow=[(1,6,3)(5,1,0)(5,2,0)(5,6,16)(5,8,0)(5,10,3)(5,11,5)(5,12,0)(5,13,0)(6,1,3)(6,5,4)(6,10,3)(6,11,6)(9,6,1)(10,4,2)(10,9,2)(11,5,1)(11,6,2)(11,8,1)(11,10,1)(11,12,3)(12,1,1)(12,5,5)(12,6,7)(12,11,6)(12,13,2)];
